InboundTrucks  = 30;
OutboundTrucks = 30;
InboundDoors   = 15;
OutboundDoors  = 15;
ReleaseTime    = [110,108,7,11,10,46,106,21,94,103,85,109,39,32,77,27,77,4,74,87,20,55,81,50,102,92,110,65,47,69];
UnloadTime     = [34,18,7,22,15,34,11,25,8,11,14,35,14,9,25,29,13,35,32,29,26,11,26,26,20,27,31,12,13,27];
LoadTime       = [6,11,12,12,10,8,6,16,8,8,8,15,21,12,13,18,14,12,6,19,20,10,21,10,10,21,11,14,16,25];
TransferTime   = [| 0,0,0,1,12,0,3,0,0,3,0,0,0,0,0,0,0,0,5,8,0,1,0,0,5,0,0,3,4,12 | 0,5,0,0,6,0,7,0,0,0,0,0,5,0,0,0,2,0,0,0,0,0,0,0,0,2,0,0,2,0 | 0,0,0,0,0,6,11,0,0,0,0,3,0,0,6,0,0,1,0,0,0,0,9,3,0,11,6,0,7,3 | 0,0,0,1,10,0,0,4,11,2,0,6,6,5,0,2,0,0,4,0,11,5,0,0,6,0,0,4,0,4 | 0,0,0,6,0,0,11,6,0,0,4,4,0,0,0,0,4,0,0,3,0,0,1,0,0,1,0,0,2,0 | 0,0,4,0,0,0,0,0,2,0,0,0,0,0,0,0,0,6,0,0,4,0,0,3,0,0,3,0,0,4 | 4,0,0,1,11,0,4,0,0,0,0,0,0,0,0,5,11,0,0,0,0,5,0,0,1,0,0,6,11,0 | 0,5,0,0,2,0,7,2,0,0,2,12,0,1,0,0,0,0,0,2,0,0,1,0,0,3,0,0,2,0 | 0,0,0,0,0,3,0,7,4,5,0,2,12,0,1,0,0,2,0,0,4,0,0,3,0,0,3,0,0,0 | 2,0,11,2,0,0,2,0,0,5,0,0,3,0,0,3,12,4,3,0,0,5,0,0,4,0,0,0,0,7 | 0,0,0,0,4,0,0,0,0,0,4,0,0,4,0,0,0,0,0,6,0,9,0,12,0,0,0,0,3,0 | 5,0,5,0,0,3,0,0,0,8,0,3,0,0,6,0,0,3,0,0,0,0,0,2,0,0,0,0,6,4 | 3,0,0,6,0,0,0,0,0,2,0,0,3,11,0,5,0,0,4,0,0,5,0,0,1,0,0,5,0,0 | 11,4,0,0,3,0,0,4,0,0,2,0,12,2,0,0,2,0,7,3,0,0,0,0,0,3,0,0,6,0 | 0,0,4,4,0,5,0,0,2,0,0,0,0,11,4,0,0,3,6,0,5,0,0,4,0,0,0,0,0,6 | 0,0,0,0,0,0,0,0,0,1,0,0,5,0,0,5,0,0,2,0,0,1,7,12,0,0,0,4,0,6 | 0,2,7,0,0,0,0,0,0,0,2,0,0,2,0,0,4,0,0,3,0,0,3,7,0,3,0,0,6,0 | 5,0,5,0,0,4,11,0,0,0,0,4,0,0,2,10,0,2,0,4,4,0,0,1,0,0,0,0,0,2 | 1,0,0,5,0,0,6,0,5,0,0,0,4,0,9,2,0,0,5,0,12,0,0,0,2,0,0,3,0,0 | 8,6,0,0,3,0,0,4,5,0,3,0,4,6,0,0,5,0,0,6,0,0,0,0,7,0,0,0,1,0 | 0,0,3,0,0,1,0,0,3,8,0,2,0,0,1,0,0,5,0,11,3,11,0,1,0,0,0,0,0,5 | 1,0,0,0,0,0,6,0,12,0,0,0,4,0,0,1,0,0,3,0,0,0,0,10,4,0,0,5,0,0 | 0,0,0,8,0,0,0,4,0,0,2,0,0,0,0,0,4,0,0,2,0,0,6,0,0,0,0,0,2,0 | 0,12,6,6,0,0,0,0,0,10,0,2,0,0,1,9,0,2,0,0,0,0,0,2,0,0,3,0,0,4 | 0,9,0,0,0,0,5,0,0,2,0,0,6,0,0,2,12,0,4,0,0,3,0,0,6,0,0,0,0,0 | 4,4,8,0,3,0,0,2,0,4,2,0,9,6,0,12,1,0,0,3,0,0,5,7,0,0,0,11,2,0 | 0,0,0,0,0,2,0,9,4,0,0,4,0,4,6,0,7,4,0,11,1,0,0,6,0,0,1,0,0,6 | 4,0,0,3,0,0,2,4,0,3,9,0,6,0,10,4,0,0,4,0,4,4,0,0,0,0,0,2,0,0 | 9,5,0,0,6,0,0,0,0,0,0,0,0,3,0,0,1,0,5,2,0,0,5,0,0,0,0,0,0,0 | 0,0,0,0,0,5,0,0,0,0,0,0,5,0,3,0,0,3,0,0,0,0,0,4,0,0,4,0,0,1 |];
